
Gurobi 6.5.2 (win64) logging started 07/23/16 03:17:33


Gurobi 6.5.2 (win64) logging started 07/23/16 03:17:33

Optimize a model with 27000 rows, 1553 columns and 58241 nonzeros
Coefficient statistics:
  Matrix range    [4e-06, 1e+03]
  Objective range [1e+00, 1e+00]
  Bounds range    [1e+00, 1e+00]
  RHS range       [1e+00, 1e+03]
Found heuristic solution: objective 3130.54
Presolve removed 26974 rows and 1527 columns
Presolve time: 0.01s
Presolved: 26 rows, 26 columns, 78 nonzeros
Variable types: 26 continuous, 0 integer (0 binary)

Root relaxation: objective 2.094916e+02, 19 iterations, 0.00 seconds

    Nodes    |    Current Node    |     Objective Bounds      |     Work
 Expl Unexpl |  Obj  Depth IntInf | Incumbent    BestBd   Gap | It/Node Time

*    0     0               0     209.4916343  209.49163  0.00%     -    0s

Explored 0 nodes (19 simplex iterations) in 0.02 seconds
Thread count was 8 (of 8 available processors)

Optimal solution found (tolerance 1.00e-04)
Best objective 2.094916342617e+02, best bound 2.094916342617e+02, gap 0.0%

Wrote requested result file 'H2\instance23\\Results23EC_Sol3.lp'

